FILENAME:   ../instances_new/flowersnark/flowersnark17_3.cip
SETTINGS:   settings_final_moresymresack_relabel
TIMELIMIT:  7200
OUTPUTNAME: final_flowersnark__settings_final_moresymresack_relabel__4__
BINNAME:    bin/sbcs.linux.x86_64.gnu.opt.cpx
BASENAME:   flowersnark17_3.cip
SEED:       4
@01 ../instances_new/flowersnark/flowersnark17_3.cip ===========
@02 flowersnark17_3.cip
@03 1668053819
SCIP version 8.0.2 [precision: 8 byte] [memory: block] [mode: optimized] [LP solver: CPLEX 20.1.0.0] [GitHash: 5f0473c]
Copyright (C) 2002-2022 Konrad-Zuse-Zentrum fuer Informationstechnik Berlin (ZIB)

Symretope propagation methods - (c) Jasper van Doornmalen, Christopher Hojny.
[GitHash: 8113d1c]

reading parameter file <../settings/settings_final_moresymresack_relabel.set> ...

Changed settings:
limits/time = 7200
misc/usesymmetry = 1
randomization/randomseedshift = 4
constraints/orbisack/sepafreq = -1
constraints/symresack/sepafreq = -1
propagating/symmetry/addsymresacks = TRUE
propagating/symmetry/detectsubgroups = FALSE
propagating/symmetry/usesymretopes = FALSE
propagating/symmetry/addmoresymresacks = TRUE
propagating/symmetry/ofsymcomptiming = 0
constraints/symretope/sepafreq = -1
constraints/symretope/peek = FALSE


solving problem ...

original problem has 306 variables (306 bin, 0 int, 0 impl, 0 cont) and 306 constraints
presolving:
(round 1, exhaustive) 0 del vars, 0 del conss, 0 add conss, 0 chg bounds, 0 chg sides, 0 chg coeffs, 306 upgd conss, 0 impls, 306 clqs
   (0.0s) probing: 51/306 (16.7%) - 0 fixings, 0 aggregations, 0 implications, 0 bound changes
   (0.0s) probing aborted: 50/50 successive totally useless probings
   (0.0s) symmetry computation started: requiring (bin +, int +, cont +), (fixed: bin -, int -, cont -)
   (0.0s) symmetry computation finished: 5 generators found (max: 1500, log10 of symmetry group size: 2.6)
(round 2, exhaustive) 1 del vars, 0 del conss, 37 add conss, 0 chg bounds, 0 chg sides, 0 chg coeffs, 306 upgd conss, 0 impls, 306 clqs
(round 3, fast)       2 del vars, 1 del conss, 37 add conss, 0 chg bounds, 0 chg sides, 0 chg coeffs, 306 upgd conss, 0 impls, 305 clqs
   (0.0s) probing: 56/306 (18.3%) - 0 fixings, 0 aggregations, 0 implications, 0 bound changes
   (0.0s) probing aborted: 50/50 successive totally useless probings
presolving (4 rounds: 4 fast, 3 medium, 3 exhaustive):
 2 deleted vars, 1 deleted constraints, 37 added constraints, 0 tightened bounds, 0 added holes, 0 changed sides, 0 changed coefficients
 0 implications, 305 cliques
presolved problem has 304 variables (304 bin, 0 int, 0 impl, 0 cont) and 342 constraints
    305 constraints of type <setppc>
      3 constraints of type <orbisack>
      2 constraints of type <orbitope>
     32 constraints of type <symresack>
transformed objective value is always integral (scale: 1)
Presolving Time: 0.01

 time | node  | left  |LP iter|LP it/n|mem/heur|mdpt |vars |cons |rows |cuts |sepa|confs|strbr|  dualbound   | primalbound  |  gap   | compl. 
  0.0s|     1 |     0 |   274 |     - |  6167k |   0 | 304 | 398 | 340 |   0 |  0 |  57 |   0 | 0.000000e+00 |      --      |    Inf | unknown
  0.1s|     1 |     0 |   657 |     - |  7443k |   0 | 304 | 599 | 343 |   3 |  1 |  58 |   0 | 0.000000e+00 |      --      |    Inf | unknown
  0.2s|     1 |     0 |   718 |     - |  9349k |   0 | 304 | 600 | 346 |   6 |  2 |  59 |   0 | 0.000000e+00 |      --      |    Inf | unknown
  0.2s|     1 |     0 |   782 |     - |    10M |   0 | 304 | 602 | 349 |   9 |  3 |  61 |   0 | 0.000000e+00 |      --      |    Inf | unknown
  0.2s|     1 |     0 |   842 |     - |    11M |   0 | 304 | 604 | 351 |  11 |  4 |  63 |   0 | 0.000000e+00 |      --      |    Inf | unknown
  0.2s|     1 |     0 |   916 |     - |    11M |   0 | 304 | 605 | 353 |  13 |  5 |  64 |   0 | 0.000000e+00 |      --      |    Inf | unknown
  0.3s|     1 |     0 |  1023 |     - |    13M |   0 | 304 | 607 | 356 |  16 |  6 |  66 |   0 | 0.000000e+00 |      --      |    Inf | unknown
  0.3s|     1 |     0 |  1112 |     - |    13M |   0 | 304 | 608 | 358 |  18 |  7 |  67 |   0 | 0.000000e+00 |      --      |    Inf | unknown
  0.3s|     1 |     0 |  1212 |     - |    17M |   0 | 304 | 611 | 361 |  21 |  8 |  70 |   0 | 0.000000e+00 |      --      |    Inf | unknown
  0.4s|     1 |     0 |  1330 |     - |    17M |   0 | 304 | 613 | 363 |  23 |  9 |  72 |   0 | 0.000000e+00 |      --      |    Inf | unknown
  0.4s|     1 |     0 |  1450 |     - |    19M |   0 | 304 | 615 | 365 |  25 | 10 |  74 |   0 | 0.000000e+00 |      --      |    Inf | unknown
  0.4s|     1 |     0 |  1545 |     - |    19M |   0 | 304 | 616 | 366 |  26 | 11 |  75 |   0 | 0.000000e+00 |      --      |    Inf | unknown
  0.4s|     1 |     0 |  1625 |     - |    19M |   0 | 304 | 619 | 331 |  27 | 12 |  78 |   0 | 0.000000e+00 |      --      |    Inf | unknown
  0.5s|     1 |     0 |  1699 |     - |    19M |   0 | 304 | 620 | 332 |  28 | 13 |  79 |   0 | 0.000000e+00 |      --      |    Inf | unknown
  0.5s|     1 |     0 |  1805 |     - |    19M |   0 | 304 | 622 | 333 |  29 | 14 |  81 |   0 | 0.000000e+00 |      --      |    Inf | unknown
 time | node  | left  |LP iter|LP it/n|mem/heur|mdpt |vars |cons |rows |cuts |sepa|confs|strbr|  dualbound   | primalbound  |  gap   | compl. 
  0.6s|     1 |     2 |  2067 |     - |    19M |   0 | 304 | 626 | 333 |  29 | 14 |  85 |  11 | 0.000000e+00 |      --      |    Inf | unknown
  1.4s|   100 |    37 | 11158 |  95.1 |    23M |  15 | 304 | 911 | 321 |  84 |  1 | 370 |  11 | 0.000000e+00 |      --      |    Inf |   0.97%
  2.1s|   200 |    47 | 17965 |  81.5 |    29M |  15 | 304 |1161 | 320 | 141 |  1 | 622 |  11 | 0.000000e+00 |      --      |    Inf |   5.98%
  2.7s|   300 |    65 | 24324 |  75.5 |    29M |  15 | 304 |1320 | 323 | 223 |  1 | 781 |  11 | 0.000000e+00 |      --      |    Inf |  14.18%
  3.4s|   400 |    58 | 29892 |  70.6 |    29M |  15 | 304 |1548 | 322 | 280 |  0 |1012 |  11 | 0.000000e+00 |      --      |    Inf |  19.56%
  3.9s|   500 |    66 | 35593 |  67.8 |    30M |  17 | 304 |1776 |   0 | 338 |  0 |1240 |  11 | 0.000000e+00 |      --      |    Inf |  21.44%
  4.4s|   600 |    75 | 41197 |  65.9 |    30M |  17 | 304 |1969 | 323 | 427 |  1 |1439 |  11 | 0.000000e+00 |      --      |    Inf |  23.83%
  4.8s|   700 |    53 | 45623 |  62.8 |    30M |  17 | 304 |2107 | 323 | 468 |  1 |1613 |  11 | 0.000000e+00 |      --      |    Inf |  25.84%
  5.6s|   800 |    48 | 53496 |  64.8 |    30M |  17 | 304 |2214 | 322 | 507 |  0 |1773 |  11 | 0.000000e+00 |      --      |    Inf |  27.23%
  6.0s|   900 |    61 | 58504 |  63.1 |    32M |  17 | 304 |2281 | 322 | 541 |  1 |2021 |  11 | 0.000000e+00 |      --      |    Inf |  29.12%
  6.4s|  1000 |    56 | 63689 |  62.0 |    32M |  17 | 304 |2168 | 321 | 577 |  1 |2310 |  11 | 0.000000e+00 |      --      |    Inf |  31.03%
  6.9s|  1100 |    67 | 68912 |  61.1 |    33M |  17 | 304 |2133 | 322 | 634 |  1 |2498 |  11 | 0.000000e+00 |      --      |    Inf |  32.40%
  7.3s|  1200 |    57 | 72863 |  59.3 |    33M |  17 | 304 |2133 | 323 | 648 |  0 |2675 |  11 | 0.000000e+00 |      --      |    Inf |  34.48%
  8.1s|  1300 |    66 | 78618 |  59.2 |    33M |  17 | 304 |2227 | 322 | 708 |  1 |2861 |  11 | 0.000000e+00 |      --      |    Inf |  39.49%
  8.5s|  1400 |   117 | 83702 |  58.6 |    33M |  17 | 304 |2487 | 321 | 733 |  1 |3331 |  11 | 0.000000e+00 |      --      |    Inf |  39.91%
 time | node  | left  |LP iter|LP it/n|mem/heur|mdpt |vars |cons |rows |cuts |sepa|confs|strbr|  dualbound   | primalbound  |  gap   | compl. 
  9.0s|  1500 |   149 | 88224 |  57.7 |    33M |  17 | 304 |2594 |   0 | 755 |  0 |3590 |  11 | 0.000000e+00 |      --      |    Inf |  40.76%
  9.3s|  1600 |   180 | 93097 |  57.1 |    33M |  17 | 304 |2848 | 326 | 785 |  0 |4037 |  11 | 0.000000e+00 |      --      |    Inf |  41.08%
  9.7s|  1700 |   184 | 97497 |  56.4 |    33M |  17 | 304 |2937 | 322 | 830 |  0 |4291 |  11 | 0.000000e+00 |      --      |    Inf |  41.73%
 10.0s|  1800 |   187 |101693 |  55.6 |    33M |  17 | 304 |3165 | 323 | 842 |  0 |4745 |  11 | 0.000000e+00 |      --      |    Inf |  42.07%
 10.3s|  1900 |   177 |105174 |  54.5 |    34M |  17 | 304 |3219 | 323 | 863 |  1 |4992 |  11 | 0.000000e+00 |      --      |    Inf |  42.58%
 10.7s|  2000 |   184 |109210 |  53.8 |    34M |  17 | 304 |3307 | 322 | 885 |  0 |5197 |  11 | 0.000000e+00 |      --      |    Inf |  42.93%
 10.9s|  2100 |   164 |112430 |  52.7 |    34M |  17 | 304 |3333 | 323 | 895 |  1 |5418 |  11 | 0.000000e+00 |      --      |    Inf |  43.55%
 11.2s|  2200 |   134 |115943 |  51.9 |    34M |  17 | 304 |3370 | 323 | 903 |  0 |5663 |  11 | 0.000000e+00 |      --      |    Inf |  44.00%
 12.4s|  2300 |   135 |121016 |  51.9 |    34M |  17 | 304 |3196 | 325 | 917 |  2 |5835 |  11 | 0.000000e+00 |      --      |    Inf |  55.23%
 12.7s|  2400 |   115 |125575 |  51.6 |    34M |  17 | 304 |3201 | 321 | 946 |  0 |6090 |  11 | 0.000000e+00 |      --      |    Inf |  58.31%
 13.0s|  2500 |    85 |128815 |  50.9 |    34M |  17 | 304 |3267 | 322 | 955 |  1 |6436 |  11 | 0.000000e+00 |      --      |    Inf |  59.81%
 13.6s|  2600 |   107 |134025 |  50.9 |    35M |  17 | 304 |3330 | 321 | 987 |  1 |6694 |  11 | 0.000000e+00 |      --      |    Inf |  60.38%
 13.9s|  2700 |   119 |138328 |  50.6 |    35M |  17 | 304 |3438 | 323 |1010 |  0 |6984 |  11 | 0.000000e+00 |      --      |    Inf |  60.94%
 15.0s|  2800 |   112 |143269 |  50.6 |    35M |  17 | 304 |3413 | 321 |1044 |  1 |7244 |  11 | 0.000000e+00 |      --      |    Inf |  68.42%
 15.7s|  2900 |   124 |148324 |  50.6 |    35M |  17 | 304 |3614 | 320 |1105 |  0 |7560 |  11 | 0.000000e+00 |      --      |    Inf |  70.20%
 time | node  | left  |LP iter|LP it/n|mem/heur|mdpt |vars |cons |rows |cuts |sepa|confs|strbr|  dualbound   | primalbound  |  gap   | compl. 
 16.2s|  3000 |   159 |153254 |  50.5 |    35M |  17 | 304 |3874 | 321 |1151 |  0 |7868 |  11 | 0.000000e+00 |      --      |    Inf |  70.96%
 16.4s|  3100 |   124 |156135 |  49.8 |    36M |  17 | 304 |4006 |   0 |1155 |  0 |8085 |  11 | 0.000000e+00 |      --      |    Inf |  71.72%
 16.6s|  3200 |   101 |158920 |  49.1 |    36M |  17 | 304 |3921 | 320 |1176 |  1 |8210 |  11 | 0.000000e+00 |      --      |    Inf |  72.79%
 17.0s|  3300 |    89 |162452 |  48.7 |    36M |  17 | 304 |3827 |   0 |1204 |  0 |8336 |  11 | 0.000000e+00 |      --      |    Inf |  74.76%
 17.4s|  3400 |    97 |166568 |  48.5 |    36M |  17 | 304 |3877 | 322 |1235 |  1 |8605 |  11 | 0.000000e+00 |      --      |    Inf |  75.70%
 17.8s|  3500 |    88 |170951 |  48.4 |    35M |  17 | 304 |4027 |   0 |1292 |  0 |8815 |  11 | 0.000000e+00 |      --      |    Inf |  76.74%
 18.2s|  3600 |    64 |174555 |  48.0 |    35M |  17 | 304 |4013 | 324 |1297 |  1 |9023 |  11 | 0.000000e+00 |      --      |    Inf |  80.73%
 18.7s|  3700 |    56 |179402 |  48.0 |    35M |  17 | 304 |3891 | 321 |1349 |  1 |9147 |  11 | 0.000000e+00 |      --      |    Inf |  83.51%
 19.6s|  3800 |    80 |186278 |  48.6 |    36M |  17 | 304 |3934 | 323 |1427 |  0 |9443 |  11 | 0.000000e+00 |      --      |    Inf |  88.03%
 20.1s|  3900 |    54 |190172 |  48.3 |    36M |  17 | 304 |3959 |   0 |1486 |  0 |9585 |  11 | 0.000000e+00 |      --      |    Inf |  90.25%
 20.5s|  4000 |    23 |193418 |  47.9 |    36M |  17 | 304 |3878 | 320 |1519 |  1 |9738 |  11 | 0.000000e+00 |      --      |    Inf |  94.90%
 21.0s|  4100 |    25 |198505 |  48.0 |    36M |  17 | 304 |4044 | 327 |1581 |  2 |9997 |  11 | 0.000000e+00 |      --      |    Inf |  97.49%
 21.4s|  4200 |     4 |202376 |  47.8 |    36M |  17 | 304 |3706 | 322 |1612 |  1 |  10k|  11 | 0.000000e+00 |      --      |    Inf |  99.51%

SCIP Status        : problem is solved [infeasible]
Solving Time (sec) : 21.58
Solving Nodes      : 4248
Primal Bound       : +1.00000000000000e+20 (0 solutions)
Dual Bound         : +1.00000000000000e+20
Gap                : 0.00 %
SCIP Status        : problem is solved [infeasible]
Total Time         :      21.58
  solving          :      21.58
  presolving       :       0.01 (included in solving)
  reading          :       0.00
  copying          :       0.28 (33 #copies) (minimal 0.00, maximal 0.01, average 0.01)
Original Problem   :
  Problem name     : model
  Variables        : 306 (306 binary, 0 integer, 0 implicit integer, 0 continuous)
  Constraints      : 306 initial, 306 maximal
  Objective        : minimize, 0 non-zeros (abs.min = 1e+20, abs.max = -1e+20)
Presolved Problem  :
  Problem name     : t_model
  Variables        : 304 (304 binary, 0 integer, 0 implicit integer, 0 continuous)
  Constraints      : 342 initial, 4117 maximal
  Objective        : minimize, 0 non-zeros (abs.min = 1e+20, abs.max = -1e+20)
  Nonzeros         : 11815 constraint, 862 clique table
Presolvers         :   ExecTime  SetupTime  Calls  FixedVars   AggrVars   ChgTypes  ChgBounds   AddHoles    DelCons    AddCons   ChgSides   ChgCoefs
  boundshift       :       0.00       0.00      0          0          0          0          0          0          0          0          0          0
  convertinttobin  :       0.00       0.00      0          0          0          0          0          0          0          0          0          0
  domcol           :       0.00       0.00      2          0          0          0          0          0          0          0          0          0
  dualagg          :       0.00       0.00      0          0          0          0          0          0          0          0          0          0
  dualcomp         :       0.00       0.00      0          0          0          0          0          0          0          0          0          0
  dualinfer        :       0.00       0.00      0          0          0          0          0          0          0          0          0          0
  dualsparsify     :       0.00       0.00      1          0          0          0          0          0          0          0          0          0
  gateextraction   :       0.00       0.00      0          0          0          0          0          0          0          0          0          0
  implics          :       0.00       0.00      3          0          0          0          0          0          0          0          0          0
  inttobinary      :       0.00       0.00      0          0          0          0          0          0          0          0          0          0
  qpkktref         :       0.00       0.00      0          0          0          0          0          0          0          0          0          0
  redvub           :       0.00       0.00      0          0          0          0          0          0          0          0          0          0
  sparsify         :       0.00       0.00      1          0          0          0          0          0          0          0          0          0
  stuffing         :       0.00       0.00      0          0          0          0          0          0          0          0          0          0
  trivial          :       0.00       0.00      4          0          0          0          0          0          0          0          0          0
  tworowbnd        :       0.00       0.00      0          0          0          0          0          0          0          0          0          0
  dualfix          :       0.00       0.00      4          0          0          0          0          0          0          0          0          0
  genvbounds       :       0.00       0.00      0          0          0          0          0          0          0          0          0          0
  probing          :       0.00       0.00      2          0          0          0          0          0          0          0          0          0
  pseudoobj        :       0.00       0.00      0          0          0          0          0          0          0          0          0          0
  symmetry         :       0.00       0.00      1          1          0          0          0          0          0         37          0          0
  vbounds          :       0.00       0.00      1          0          0          0          0          0          0          0          0          0
  knapsack         :       0.00       0.00      0          0          0          0          0          0          0          0          0          0
  setppc           :       0.00       0.00      7          0          1          0          0          0          1          0          0          0
  linear           :       0.00       0.00      2          0          0          0          0          0          0          0          0          0
  orbisack         :       0.00       0.00      1          0          0          0          0          0          0          0          0          0
  orbitope         :       0.00       0.00      1          0          0          0          0          0          0          0          0          0
  symresack        :       0.00       0.00      1          0          0          0          0          0          0          0          0          0
  logicor          :       0.00       0.00      0          0          0          0          0          0          0          0          0          0
  benders          :       0.00       0.00      0          0          0          0          0          0          0          0          0          0
  components       :       0.00       0.00      1          0          0          0          0          0          0          0          0          0
  root node        :          -          -      -         19          -          -         19          -          -          -          -          -
Constraints        :     Number  MaxNumber  #Separate #Propagate    #EnfoLP    #EnfoRelax  #EnfoPS    #Check   #ResProp    Cutoffs    DomReds       Cuts    Applied      Conss   Children
  benderslp        :          0          0          0          0       2364          0          0          7          0          0          0          0          0          0          0
  integral         :          0          0          0          0       2364          0          0          7          0          0          0          0          0          0       4728
  knapsack         :          0+        74          0      52481          0          0          0          0      14427        393      15540          0          0          0          0
  setppc           :        305+       313         14      52540          0          0          0          3     170703       1106     117164          2          1          0          0
  linear           :          0+       219         14      51009          0          0          0          0       5631        107       5305          0          0          0          0
  orbisack         :          3          3          0          4          0          0          0          0          1          1          0          0          0          0          0
  orbitope         :          2          2          0      51226          0          0          0          0       1489          5        264          0          0          0          0
  symresack        :         32         32          0       9682          0          0          0          0       3848        119        718          0          0          0          0
  logicor          :          0+      3647         14      37751          0          0          0          0      35279        452      20342          3          3          0          0
  benders          :          0          0          0          0          0          0          0          0          0          0          0          0          0          0          0
  countsols        :          0          0          0          0          0          0          0          0          0          0          0          0          0          0          0
  components       :          0          0          0          0          0          0          0          0          0          0          0          0          0          0          0
Constraint Timings :  TotalTime  SetupTime   Separate  Propagate     EnfoLP     EnfoPS     EnfoRelax   Check    ResProp    SB-Prop
  benderslp        :       0.00       0.00       0.00       0.00       0.00       0.00       0.00       0.00       0.00       0.00
  integral         :       0.19       0.00       0.00       0.00       0.19       0.00       0.00       0.00       0.00       0.00
  knapsack         :       0.28       0.00       0.00       0.25       0.00       0.00       0.00       0.00       0.03       0.00
  setppc           :       0.74       0.00       0.00       0.68       0.00       0.00       0.00       0.00       0.06       0.00
  linear           :       0.12       0.00       0.00       0.11       0.00       0.00       0.00       0.00       0.01       0.00
  orbisack         :       0.00       0.00       0.00       0.00       0.00       0.00       0.00       0.00       0.00       0.00
  orbitope         :       0.14       0.00       0.00       0.12       0.00       0.00       0.00       0.00       0.02       0.00
  symresack        :       0.04       0.00       0.00       0.03       0.00       0.00       0.00       0.00       0.01       0.00
  logicor          :       0.78       0.00       0.00       0.75       0.00       0.00       0.00       0.00       0.03       0.00
  benders          :       0.00       0.00       0.00       0.00       0.00       0.00       0.00       0.00       0.00       0.00
  countsols        :       0.00       0.00       0.00       0.00       0.00       0.00       0.00       0.00       0.00       0.00
  components       :       0.00       0.00       0.00       0.00       0.00       0.00       0.00       0.00       0.00       0.00
Propagators        : #Propagate   #ResProp    Cutoffs    DomReds
  dualfix          :          1          0          0          0
  genvbounds       :          0          0          0          0
  nlobbt           :          0          0          0          0
  obbt             :          0          0          0          0
  probing          :          0          0          0          0
  pseudoobj        :          0          0          0          0
  redcost          :          0          0          0          0
  rootredcost      :          0          0          0          0
  symmetry         :          0          0          0          0
  vbounds          :      40246          0          0          0
Propagator Timings :  TotalTime  SetupTime   Presolve  Propagate    ResProp    SB-Prop
  dualfix          :       0.00       0.00       0.00       0.00       0.00       0.00
  genvbounds       :       0.01       0.00       0.00       0.00       0.00       0.00
  nlobbt           :       0.00       0.00       0.00       0.00       0.00       0.00
  obbt             :       0.00       0.00       0.00       0.00       0.00       0.00
  probing          :       0.00       0.00       0.00       0.00       0.00       0.00
  pseudoobj        :       0.00       0.00       0.00       0.00       0.00       0.00
  redcost          :       0.00       0.00       0.00       0.00       0.00       0.00
  rootredcost      :       0.00       0.00       0.00       0.00       0.00       0.00
  symmetry         :       0.01       0.00       0.00       0.00       0.00       0.00
  vbounds          :       0.06       0.00       0.00       0.06       0.00       0.00
Orbital fixing     :
  vars fixed to 0  :          0
  vars fixed to 1  :          0
Conflict Analysis  :       Time      Calls    Success    DomReds  Conflicts   Literals    Reconvs ReconvLits   Dualrays   Nonzeros   LP Iters   (pool size: [10000,10000])
  propagation      :       0.18       2131       1747          -      10626       28.6        160       10.3          -          -          -
  infeasible LP    :       0.30       1329       1023          -       7298       26.0         47        9.8        259       28.2          0
  bound exceed. LP :       0.00          0          0          -          0        0.0          0        0.0          0        0.0          0
  strong branching :       0.00          0          0          -          0        0.0          0        0.0          -          -          0
  pseudo solution  :       0.00          0          0          -          0        0.0          0        0.0          -          -          -
  applied globally :       0.06          -          -          0       9937       19.9          -          -        238          -          -
  applied locally  :          -          -          -          0         90       37.7          -          -         21          -          -
Separators         :   ExecTime  SetupTime      Calls  RootCalls    Cutoffs    DomReds  FoundCuts ViaPoolAdd  DirectAdd    Applied ViaPoolApp  DirectApp      Conss
  cut pool         :       1.48          -       1385         27          -          -      21184       6770          -          -          -          -          -    (maximal pool size:       3174)
  aggregation      :       1.12       0.00        762         14          0          0          2          0          2          1          0          1          0
  > cmir           :          -          -          -          -          -          -          -          0          1          1          0          1          -
  > flowcover      :          -          -          -          -          -          -          -          0          0          0          0          0          -
  > knapsackcover  :          -          -          -          -          -          -          -          0          1          0          0          0          -
  cgmip            :       0.00       0.00          0          0          0          0          0          0          0          0          0          0          0
  clique           :       0.01       0.00         14         14          0          0          0          0          0          0          0          0          0
  closecuts        :       0.00       0.00          0          0          0          0          0          0          0          0          0          0          0
  convexproj       :       0.00       0.00          0          0          0          0          0          0          0          0          0          0          0
  disjunctive      :       0.00       0.00          0          0          0          0          0          0          0          0          0          0          0
  eccuts           :       0.00       0.00          0          0          0          0          0          0          0          0          0          0          0
  gauge            :       0.00       0.00          0          0          0          0          0          0          0          0          0          0          0
  gomory           :       2.82       0.00        758         10          0          0      31347       6667      10232        841        586        255          0
  > gomorymi       :          -          -          -          -          -          -          -       1008       5116        191         47        144          -
  > strongcg       :          -          -          -          -          -          -          -       5659       5116        650        539        111          -
  impliedbounds    :       0.01       0.00        762         14          0          7          2          0          0          0          0          0          0
  interminor       :       0.00       0.00          0          0          0          0          0          0          0          0          0          0          0
  intobj           :       0.00       0.00          0          0          0          0          0          0          0          0          0          0          0
  mcf              :       0.00       0.00          1          1          0          0          0          0          0          0          0          0          0
  minor            :       0.00       0.00          0          0          0          0          0          0          0          0          0          0          0
  mixing           :       0.00       0.00          0          0          0          0          0          0          0          0          0          0          0
  oddcycle         :       0.00       0.00          0          0          0          0          0          0          0          0          0          0          0
  rapidlearning    :       4.28       0.00         32          1          0       2490          0          0          0          0          0          0        490
  rlt              :       0.00       0.00         10         10          0          0          0          0          0          0          0          0          0
  zerohalf         :       0.48       0.00        762         14          0          0        996        103        929        780         76        704          0
Cutselectors       :   ExecTime  SetupTime      Calls  RootCalls   Selected     Forced   Filtered  RootSelec   RootForc   RootFilt 
  hybrid           :       0.02       0.00        760         14       1626          0      16312         29          0        749
Pricers            :   ExecTime  SetupTime      Calls       Vars
  problem variables:       0.00          -          0          0
Branching Rules    :   ExecTime  SetupTime   BranchLP  BranchExt   BranchPS    Cutoffs    DomReds       Cuts      Conss   Children
  allfullstrong    :       0.00       0.00          0          0          0          0          0          0          0          0
  cloud            :       0.00       0.00          0          0          0          0          0          0          0          0
  distribution     :       0.00       0.00          0          0          0          0          0          0          0          0
  fullstrong       :       0.00       0.00          0          0          0          0          0          0          0          0
  inference        :       0.00       0.00          0          0          0          0          0          0          0          0
  leastinf         :       0.00       0.00          0          0          0          0          0          0          0          0
  lookahead        :       0.00       0.00          0          0          0          0          0          0          0          0
  mostinf          :       0.00       0.00          0          0          0          0          0          0          0          0
  multaggr         :       0.00       0.00          0          0          0          0          0          0          0          0
  nodereopt        :       0.00       0.00          0          0          0          0          0          0          0          0
  pscost           :       0.00       0.00          0          0          0          0          0          0          0          0
  random           :       0.00       0.00          0          0          0          0          0          0          0          0
  relpscost        :       0.19       0.00       2364          0          0          0          0          0          0       4728
  vanillafullstrong:       0.00       0.00          0          0          0          0          0          0          0          0
Primal Heuristics  :   ExecTime  SetupTime      Calls      Found       Best
  LP solutions     :       0.00          -          -          0          0
  relax solutions  :       0.00          -          -          0          0
  pseudo solutions :       0.00          -          -          0          0
  strong branching :       0.00          -          -          0          0
  actconsdiving    :       0.00       0.00          0          0          0
  adaptivediving   :       0.28       0.00        108          0          0
  alns             :       0.01       0.00          1          0          0
  bound            :       0.00       0.00          0          0          0
  clique           :       0.00       0.00          1          0          0
  coefdiving       :       0.00       0.00          0          0          0
  completesol      :       0.00       0.00          0          0          0
  conflictdiving   :       0.14       0.00         73          0          0
  crossover        :       0.00       0.00          0          0          0
  dins             :       0.00       0.00          0          0          0
  distributiondivin:       0.20       0.00         64          0          0
  dps              :       0.00       0.00          0          0          0
  dualval          :       0.00       0.00          0          0          0
  farkasdiving     :       0.00       0.00          0          0          0
  feaspump         :       0.01       0.00          1          0          0
  fixandinfer      :       0.00       0.00          0          0          0
  fracdiving       :       0.11       0.00         71          0          0
  gins             :       0.00       0.00          0          0          0
  guideddiving     :       0.00       0.00          0          0          0
  indicator        :       0.00       0.00          0          0          0
  intdiving        :       0.00       0.00          0          0          0
  intshifting      :       0.00       0.00          0          0          0
  linesearchdiving :       0.17       0.00         50          0          0
  localbranching   :       0.00       0.00          0          0          0
  locks            :       0.00       0.00          1          0          0
  lpface           :       0.00       0.00          0          0          0
  mpec             :       0.00       0.00          0          0          0
  multistart       :       0.00       0.00          0          0          0
  mutation         :       0.00       0.00          0          0          0
  nlpdiving        :       0.00       0.00          0          0          0
  objpscostdiving  :       0.15       0.00         10          0          0
  octane           :       0.00       0.00          0          0          0
  ofins            :       0.00       0.00          0          0          0
  oneopt           :       0.00       0.00          0          0          0
  padm             :       0.00       0.00          0          0          0
  proximity        :       0.00       0.00          0          0          0
  pscostdiving     :       0.12       0.00         74          0          0
  randrounding     :       0.01       0.00         15          0          0
  rens             :       0.00       0.00          0          0          0
  reoptsols        :       0.00       0.00          0          0          0
  repair           :       0.00       0.00          0          0          0
  rins             :       0.00       0.00          0          0          0
  rootsoldiving    :       0.19       0.00         14          0          0
  rounding         :       0.05       0.00        737          0          0
  shiftandpropagate:       0.00       0.00          1          0          0
  shifting         :       0.05       0.00        424          0          0
  simplerounding   :       0.00       0.00          0          0          0
  subnlp           :       0.00       0.00          0          0          0
  trivial          :       0.00       0.00          2          0          0
  trivialnegation  :       0.00       0.00          0          0          0
  trustregion      :       0.00       0.00          0          0          0
  trysol           :       0.00       0.00          0          0          0
  twoopt           :       0.00       0.00          0          0          0
  undercover       :       0.00       0.00          0          0          0
  vbounds          :       0.00       0.00          1          0          0
  veclendiving     :       0.13       0.00         66          0          0
  zeroobj          :       0.00       0.00          0          0          0
  zirounding       :       0.02       0.00       1000          0          0
  other solutions  :          -          -          -          0          -
LP                 :       Time      Calls Iterations  Iter/call   Iter/sec  Time-0-It Calls-0-It    ItLimit
  primal LP        :       0.34        339          0       0.00       0.00       0.34        339
  dual LP          :       5.58       4359     187975      43.29   33705.15       0.00         17
  lex dual LP      :       0.00          0          0       0.00          -
  barrier LP       :       0.00          0          0       0.00          -       0.00          0
  resolve instable :       0.00          0          0       0.00          -
  diving/probing LP:       0.59        453      16277      35.93   27756.70
  strong branching :       0.10         11       2930     266.36   29078.13          -          -          0
    (at root node) :          -         11       2930     266.36          -
  conflict analysis:       0.00          0          0       0.00          -
B&B Tree           :
  number of runs   :          1
  nodes            :       4248 (2364 internal, 1884 leaves)
  feasible leaves  :          0
  infeas. leaves   :       1884
  objective leaves :          0
  nodes (total)    :       4248 (2364 internal, 1884 leaves)
  nodes left       :          0
  max depth        :         17
  max depth (total):         17
  backtracks       :       1817 (42.8%)
  early backtracks :          0 (0.0%)
  nodes exc. ref.  :          0 (0.0%)
  delayed cutoffs  :        481
  repropagations   :       2004 (44780 domain reductions, 372 cutoffs)
  avg switch length:       5.24
  switching time   :       1.17
Root Node          :
  First LP value   : +0.00000000000000e+00
  First LP Iters   :        208 (54152.56 Iter/sec)
  First LP Time    :       0.00
  Final Dual Bound : +0.00000000000000e+00
  Final Root Iters :       1739
  Root LP Estimate : +4.43897166156557e-03
Solution           :
  Solutions found  :          0 (0 improvements)
  Primal Bound     : infeasible
  Dual Bound       :          -
  Gap              :       0.00 %
Integrals          :      Total       Avg%
  primal-dual      :          -          - (problem infeasible)
  primal-ref       :          -          - (problem infeasible)
  dual-ref         :          -          - (problem infeasible)
written solution information to file <results/final_flowersnark__settings_final_moresymresack_relabel__4__flowersnark17_3.cip.sol>
@04 1668053840
